c nIsolatedPIs 2
c maxPI 30
p cnf 88 175
c gate 31 -7 22 0
-7 -31 0
22 -31 0
7 -22 31 0
c gate 32 7 -22 0
7 -32 0
-22 -32 0
-7 22 32 0
c gate 33 16 -32 0
16 -33 0
-32 -33 0
-16 32 33 0
c gate 34 -31 33 0
-31 -34 0
33 -34 0
31 -33 34 0
c gate 35 1 34 0
1 -35 0
34 -35 0
-1 -34 35 0
c gate 36 8 -23 0
8 -36 0
-23 -36 0
-8 23 36 0
c gate 37 -1 34 0
-1 -37 0
34 -37 0
1 -34 37 0
c gate 38 -31 -37 0
-31 -38 0
-37 -38 0
31 37 38 0
c gate 39 -36 -38 0
-36 -39 0
-38 -39 0
36 38 39 0
c gate 40 -9 24 0
-9 -40 0
24 -40 0
9 -24 40 0
c gate 41 -8 23 0
-8 -41 0
23 -41 0
8 -23 41 0
c gate 42 -40 -41 0
-40 -42 0
-41 -42 0
40 41 42 0
c gate 43 -39 42 0
-39 -43 0
42 -43 0
39 -42 43 0
c gate 44 9 -24 0
9 -44 0
-24 -44 0
-9 24 44 0
c gate 45 10 -25 0
10 -45 0
-25 -45 0
-10 25 45 0
c gate 46 -44 -45 0
-44 -46 0
-45 -46 0
44 45 46 0
c gate 47 -43 46 0
-43 -47 0
46 -47 0
43 -46 47 0
c gate 48 -11 26 0
-11 -48 0
26 -48 0
11 -26 48 0
c gate 49 -10 25 0
-10 -49 0
25 -49 0
10 -25 49 0
c gate 50 -48 -49 0
-48 -50 0
-49 -50 0
48 49 50 0
c gate 51 -47 50 0
-47 -51 0
50 -51 0
47 -50 51 0
c gate 52 11 -26 0
11 -52 0
-26 -52 0
-11 26 52 0
c gate 53 12 -27 0
12 -53 0
-27 -53 0
-12 27 53 0
c gate 54 -52 -53 0
-52 -54 0
-53 -54 0
52 53 54 0
c gate 55 -51 54 0
-51 -55 0
54 -55 0
51 -54 55 0
c gate 56 -13 28 0
-13 -56 0
28 -56 0
13 -28 56 0
c gate 57 -12 27 0
-12 -57 0
27 -57 0
12 -27 57 0
c gate 58 -56 -57 0
-56 -58 0
-57 -58 0
56 57 58 0
c gate 59 -55 58 0
-55 -59 0
58 -59 0
55 -58 59 0
c gate 60 13 -28 0
13 -60 0
-28 -60 0
-13 28 60 0
c gate 61 14 -29 0
14 -61 0
-29 -61 0
-14 29 61 0
c gate 62 -60 -61 0
-60 -62 0
-61 -62 0
60 61 62 0
c gate 63 -59 62 0
-59 -63 0
62 -63 0
59 -62 63 0
c gate 64 -15 30 0
-15 -64 0
30 -64 0
15 -30 64 0
c gate 65 -14 29 0
-14 -65 0
29 -65 0
14 -29 65 0
c gate 66 -64 -65 0
-64 -66 0
-65 -66 0
64 65 66 0
c gate 67 -63 66 0
-63 -67 0
66 -67 0
63 -66 67 0
c gate 68 15 -30 0
15 -68 0
-30 -68 0
-15 30 68 0
c gate 69 2 -17 0
2 -69 0
-17 -69 0
-2 17 69 0
c gate 70 -68 -69 0
-68 -70 0
-69 -70 0
68 69 70 0
c gate 71 -67 70 0
-67 -71 0
70 -71 0
67 -70 71 0
c gate 72 -3 18 0
-3 -72 0
18 -72 0
3 -18 72 0
c gate 73 -2 17 0
-2 -73 0
17 -73 0
2 -17 73 0
c gate 74 -72 -73 0
-72 -74 0
-73 -74 0
72 73 74 0
c gate 75 -71 74 0
-71 -75 0
74 -75 0
71 -74 75 0
c gate 76 3 -18 0
3 -76 0
-18 -76 0
-3 18 76 0
c gate 77 4 -19 0
4 -77 0
-19 -77 0
-4 19 77 0
c gate 78 -76 -77 0
-76 -78 0
-77 -78 0
76 77 78 0
c gate 79 -75 78 0
-75 -79 0
78 -79 0
75 -78 79 0
c gate 80 -5 20 0
-5 -80 0
20 -80 0
5 -20 80 0
c gate 81 -4 19 0
-4 -81 0
19 -81 0
4 -19 81 0
c gate 82 -80 -81 0
-80 -82 0
-81 -82 0
80 81 82 0
c gate 83 -79 82 0
-79 -83 0
82 -83 0
79 -82 83 0
c gate 84 5 -20 0
5 -84 0
-20 -84 0
-5 20 84 0
c gate 85 6 -21 0
6 -85 0
-21 -85 0
-6 21 85 0
c gate 86 -84 85 0
-84 -86 0
85 -86 0
84 -85 86 0
c gate 87 -83 86 0
-83 -87 0
86 -87 0
83 -86 87 0
c gate 88 -35 -87 0
-35 -88 0
-87 -88 0
35 87 88 0
c PO
-88 0
